32      4       
13      14      11      16      
0       0       0       0       0       3       2       4       6       
4       5       0       5       0       2       3       5       
10      5       8       0       0       2       7       10      
9       7       0       8       0       2       7       10      
1       0       0       8       1       3       8       9       10      
6       0       10      0       5       1       7       
5       1       0       0       6       2       8       9       
7       0       0       3       16      1       11      
7       10      4       0       0       1       11      
7       0       10      0       1       1       11      
8       0       11      5       0       2       12      14      
5       0       3       10      0       1       13      
6       13      0       0       7       2       15      16      
2       0       5       5       0       2       16      17      
2       6       0       0       1       2       17      23      
8       0       2       5       0       4       19      20      21      23      
9       0       0       4       6       1       18      
3       0       6       0       12      3       19      20      21      
10      11      0       8       0       2       22      24      
5       4       8       0       0       3       24      25      29      
2       5       0       0       6       3       24      25      29      
4       1       0       10      0       3       25      28      29      
1       0       8       0       16      2       24      29      
7       11      1       0       0       3       26      27      28      
4       0       0       2       13      2       26      27      
3       0       14      0       16      2       30      31      
10      0       14      4       0       2       30      31      
10      0       1       5       0       2       30      31      
5       4       0       0       13      2       30      31      
5       11      0       1       0       1       32      
4       4       0       0       1       1       32      
0       0       0       0       0       0       
